\* Problem: Maximize Z with 5 variables, bounded relaxation, and transitive symmetry *\

Maximize
 obj: x0 + x1 + x2 + x3 + x4

Subject To
 c1: x0 - x1 <= 10
 c2: x1 + x2 >= 5
 c3: x3 + x4 <= 15
 c4: x0 + x2 + x4 >= 10

Bounds
 0 <= x0 <= 20
 0 <= x1 <= 20
 0 <= x2 <= 20
 0 <= x3 <= 20
 0 <= x4 <= 20

Generals
 x0
 x1
 x2
 x3
 x4

End

